NAME : in_house_7_4
TYPE : TSP
DIMENSION : 7
EDGE_WEIGHT_TYPE : EXPLICIT
EDGE_WEIGHT_FORMAT : UPPER_ROW
COMMENT : INVERSION_SHIFT=5
EDGE_WEIGHT_SECTION
31
42
15
46
47
33
26
42
43
19
14
4
6
2
5
41
1
8
20
12
11
